c Standarized MaxSat Instance
c{
c "sha1sum": "d0f98eec2ef62224dfce56214ca7e4cb54857937",
c "nvars": 400,
c "ncls": 1051,
c "nhards": 1042,
c "nhard_len_stats":
c    { "min": 1, "max": 11, "ave": 2.26,
c      "stddev": 0.68 },
c "nsofts": 9,
c "nsoft_len_stats":
c    { "min": 1, "max": 1, "ave": 1.00,
c      "stddev": 0.00 },
c "nsoft_wts": 9,
c "soft_wt_stats":
c    { "min": 1, "max": 256, "ave": 56.78,
c      "stddev": 80.53 }
c}
c------------------------------------------------------------
c SUBTRACT 0 
p wcnf 400 1051 512
1 -1 0
2 -2 0
4 -3 0
8 -4 0
16 -5 0
32 -6 0
64 -7 0
128 -8 0
256 -9 0
512 1 0
512 -9 0
512 10 0
512 11 0
512 -26 0
512 -27 0
512 -35 0
512 -36 0
512 -43 0
512 -44 0
512 -45 0
512 -51 0
512 -52 0
512 -53 0
512 -54 0
512 -59 0
512 -60 0
512 -61 0
512 -62 0
512 -63 0
512 -67 0
512 -68 0
512 -69 0
512 -70 0
512 -71 0
512 -72 0
512 -75 0
512 -76 0
512 -77 0
512 -78 0
512 -79 0
512 -80 0
512 -81 0
512 -83 0
512 -84 0
512 -85 0
512 -86 0
512 -87 0
512 -88 0
512 -89 0
512 -90 0
512 -91 0
512 -92 0
512 -93 0
512 -94 0
512 -95 0
512 -96 0
512 -97 0
512 -98 0
512 -99 0
512 100 0
512 -101 0
512 -358 0
512 -359 0
512 360 0
512 361 0
512 -362 0
512 -364 0
512 -365 0
512 -366 0
512 -367 0
512 -368 0
512 -369 0
512 -370 0
512 377 0
512 378 0
512 -379 0
512 -381 0
512 -382 0
512 -383 0
512 -384 0
512 -385 0
512 390 0
512 -391 0
512 -393 0
512 -394 0
512 -396 0
512 397 0
512 -398 0
512 399 0
512 -400 0
512 -12 13 0
512 12 -13 -1 0
512 -14 15 0
512 14 -15 -1 0
512 -16 17 0
512 16 -17 -1 0
512 -18 19 0
512 18 -19 -1 0
512 -20 21 0
512 20 -21 -1 0
512 -22 23 0
512 22 -23 -1 0
512 -24 25 0
512 24 -25 -1 0
512 2 -28 0
512 -2 28 -11 0
512 2 -29 0
512 13 -29 0
512 -2 -13 29 0
512 2 -30 0
512 15 -30 0
512 -2 -15 30 0
512 2 -31 0
512 17 -31 0
512 -2 -17 31 0
512 2 -32 0
512 19 -32 0
512 -2 -19 32 0
512 2 -33 0
512 21 -33 0
512 -2 -21 33 0
512 2 -34 0
512 23 -34 0
512 -2 -23 34 0
512 -2 -25 0
512 3 -37 0
512 -3 37 -11 0
512 3 -38 0
512 13 -38 0
512 -3 -13 38 0
512 3 -39 0
512 15 -39 0
512 -3 -15 39 0
512 3 -40 0
512 17 -40 0
512 -3 -17 40 0
512 3 -41 0
512 19 -41 0
512 -3 -19 41 0
512 3 -42 0
512 21 -42 0
512 -3 -21 42 0
512 -3 -23 0
512 -3 -25 0
512 4 -46 0
512 -4 46 -11 0
512 4 -47 0
512 13 -47 0
512 -4 -13 47 0
512 4 -48 0
512 15 -48 0
512 -4 -15 48 0
512 4 -49 0
512 17 -49 0
512 -4 -17 49 0
512 4 -50 0
512 19 -50 0
512 -4 -19 50 0
512 -4 -21 0
512 -4 -23 0
512 -4 -25 0
512 5 -55 0
512 -5 55 -11 0
512 5 -56 0
512 13 -56 0
512 -5 -13 56 0
512 5 -57 0
512 15 -57 0
512 -5 -15 57 0
512 5 -58 0
512 17 -58 0
512 -5 -17 58 0
512 -5 -19 0
512 -5 -21 0
512 -5 -23 0
512 -5 -25 0
512 6 -64 0
512 -6 64 -11 0
512 6 -65 0
512 13 -65 0
512 -6 -13 65 0
512 6 -66 0
512 15 -66 0
512 -6 -15 66 0
512 -6 -17 0
512 -6 -19 0
512 -6 -21 0
512 -6 -23 0
512 -6 -25 0
512 7 -73 0
512 -7 73 -11 0
512 7 -74 0
512 13 -74 0
512 -7 -13 74 0
512 -7 -15 0
512 -7 -17 0
512 -7 -19 0
512 -7 -21 0
512 -7 -23 0
512 -7 -25 0
512 8 -82 0
512 -8 82 -11 0
512 -8 -13 0
512 -8 -15 0
512 -8 -17 0
512 -8 -19 0
512 -8 -21 0
512 -8 -23 0
512 -8 -25 0
512 24 -106 0
512 34 -106 0
512 -105 106 0
512 42 -107 0
512 50 -107 0
512 -105 107 0
512 58 -109 0
512 66 -109 0
512 -108 109 0
512 74 -110 0
512 82 -110 0
512 -108 110 0
512 104 105 108 0
512 106 107 113 0
512 24 34 115 0
512 -114 -115 0
512 42 50 116 0
512 -114 -116 0
512 112 -113 114 0
512 -111 -112 0
512 109 110 118 0
512 58 66 120 0
512 -119 -120 0
512 74 82 121 0
512 -119 -121 0
512 117 -118 119 0
512 -111 -117 0
512 103 -104 111 0
512 -113 -124 0
512 114 -124 0
512 -118 -125 0
512 119 -125 0
512 123 124 125 0
512 -122 -123 0
512 -115 -116 127 0
512 -126 -127 0
512 -120 -121 128 0
512 -126 -128 0
512 -122 126 0
512 22 -140 0
512 33 -140 0
512 -139 140 0
512 41 -141 0
512 49 -141 0
512 -139 141 0
512 57 -143 0
512 65 -143 0
512 -142 143 0
512 73 -144 0
512 20 -151 0
512 32 -151 0
512 -150 151 0
512 40 -152 0
512 48 -152 0
512 -150 152 0
512 56 -154 0
512 64 -154 0
512 -153 154 0
512 18 -160 0
512 31 -160 0
512 -159 160 0
512 39 -161 0
512 47 -161 0
512 -159 161 0
512 16 -168 0
512 30 -168 0
512 38 -169 0
512 46 -169 0
512 167 168 169 0
512 16 30 171 0
512 -170 -171 0
512 38 46 172 0
512 -170 -172 0
512 166 -167 170 0
512 -165 -166 0
512 14 29 176 0
512 12 28 178 0
512 37 177 -178 0
512 175 -176 -177 0
512 -174 -175 0
512 14 -181 0
512 29 -181 0
512 -178 -182 0
512 37 -182 0
512 180 181 182 0
512 -179 -180 0
512 -176 -183 0
512 -177 -183 0
512 -179 183 0
512 -174 179 0
512 168 -184 0
512 169 -184 0
512 173 174 184 0
512 -165 -173 0
512 -164 165 0
512 -175 179 186 0
512 -185 -186 0
512 -167 -187 0
512 170 -187 0
512 -185 187 0
512 -164 185 0
512 -163 164 0
512 55 -163 0
512 -162 163 0
512 -171 -172 190 0
512 -186 187 191 0
512 189 -190 -191 0
512 -188 -189 0
512 -166 -173 193 0
512 -192 -193 0
512 -190 -194 0
512 -191 -194 0
512 -192 194 0
512 -188 192 0
512 -162 188 0
512 158 159 162 0
512 -157 -158 0
512 160 161 197 0
512 18 31 199 0
512 -198 -199 0
512 39 47 200 0
512 -198 -200 0
512 196 -197 198 0
512 -195 -196 0
512 163 188 202 0
512 55 164 204 0
512 -203 -204 0
512 -189 192 205 0
512 -203 -205 0
512 201 -202 203 0
512 -195 -201 0
512 -157 195 0
512 -156 157 0
512 -197 -207 0
512 198 -207 0
512 -206 207 0
512 -202 -208 0
512 203 -208 0
512 -206 208 0
512 -156 206 0
512 -155 156 0
512 -158 195 210 0
512 -209 -210 0
512 207 208 212 0
512 -211 -212 0
512 -199 -200 214 0
512 -213 -214 0
512 -204 -205 215 0
512 -213 -215 0
512 -211 213 0
512 -209 211 0
512 -155 209 0
512 -153 155 0
512 149 150 153 0
512 -148 -149 0
512 151 152 218 0
512 20 32 220 0
512 -219 -220 0
512 40 48 221 0
512 -219 -221 0
512 217 -218 219 0
512 -216 -217 0
512 154 155 223 0
512 56 64 225 0
512 -224 -225 0
512 156 209 226 0
512 -224 -226 0
512 222 -223 224 0
512 -216 -222 0
512 -148 216 0
512 -218 -228 0
512 219 -228 0
512 -227 228 0
512 -223 -229 0
512 224 -229 0
512 -227 229 0
512 147 148 227 0
512 -146 -147 0
512 -149 216 232 0
512 228 229 234 0
512 -233 -234 0
512 -220 -221 236 0
512 -235 -236 0
512 -225 -226 237 0
512 -235 -237 0
512 -233 235 0
512 231 -232 233 0
512 -230 -231 0
512 -214 -215 240 0
512 -239 -240 0
512 -196 -201 242 0
512 -241 -242 0
512 -212 213 243 0
512 -241 -243 0
512 -239 241 0
512 150 -244 0
512 153 -244 0
512 238 239 244 0
512 -230 -238 0
512 -146 230 0
512 -145 146 0
512 -240 241 246 0
512 -245 -246 0
512 148 -247 0
512 227 -247 0
512 -245 247 0
512 -145 245 0
512 -144 145 0
512 -142 144 0
512 138 139 142 0
512 140 141 250 0
512 22 33 252 0
512 -251 -252 0
512 41 49 253 0
512 -251 -253 0
512 249 -250 251 0
512 -248 -249 0
512 143 144 255 0
512 57 65 257 0
512 -256 -257 0
512 73 145 258 0
512 -256 -258 0
512 254 -255 256 0
512 -248 -254 0
512 137 -138 248 0
512 -250 -261 0
512 251 -261 0
512 -255 -262 0
512 256 -262 0
512 260 261 262 0
512 -259 -260 0
512 -252 -253 264 0
512 -263 -264 0
512 -257 -258 265 0
512 -263 -265 0
512 -259 263 0
512 136 -137 259 0
512 -135 -136 0
512 -147 230 270 0
512 -269 -270 0
512 -232 -272 0
512 233 -272 0
512 -271 272 0
512 -217 -222 275 0
512 -274 -275 0
512 -234 235 276 0
512 -274 -276 0
512 -273 274 0
512 -246 247 277 0
512 -273 -277 0
512 -271 273 0
512 -269 271 0
512 -268 269 0
512 -275 -276 280 0
512 -279 -280 0
512 -231 -238 281 0
512 -279 -281 0
512 -278 279 0
512 272 273 282 0
512 -278 -282 0
512 -268 278 0
512 -267 268 0
512 -236 -237 285 0
512 274 -277 286 0
512 284 -285 -286 0
512 -283 -284 0
512 -280 -281 288 0
512 -287 -288 0
512 -285 -289 0
512 -286 -289 0
512 -287 289 0
512 -283 287 0
512 -267 283 0
512 139 -290 0
512 142 -290 0
512 266 267 290 0
512 -135 -266 0
512 -134 135 0
512 -138 -293 0
512 248 -293 0
512 261 -294 0
512 262 -294 0
512 292 293 294 0
512 -291 -292 0
512 268 283 297 0
512 -296 -297 0
512 269 278 299 0
512 -298 -299 0
512 -284 287 300 0
512 -298 -300 0
512 -296 298 0
512 -297 298 301 0
512 295 296 -301 0
512 -291 -295 0
512 -134 291 0
512 -133 134 0
512 293 -303 0
512 294 -303 0
512 -302 303 0
512 296 -304 0
512 -301 -304 0
512 -302 304 0
512 -133 302 0
512 -132 133 0
512 135 291 306 0
512 -305 -306 0
512 -249 -254 310 0
512 -309 -310 0
512 -260 263 311 0
512 -309 -311 0
512 -308 309 0
512 303 304 312 0
512 -308 -312 0
512 -307 308 0
512 -299 -300 314 0
512 -313 -314 0
512 -137 -315 0
512 259 -315 0
512 -313 315 0
512 -307 313 0
512 -305 307 0
512 -132 305 0
512 -136 -266 319 0
512 -318 -319 0
512 -310 -311 321 0
512 -320 -321 0
512 -292 -295 322 0
512 -320 -322 0
512 -318 320 0
512 -317 318 0
512 308 313 323 0
512 -317 -323 0
512 -316 317 0
512 -319 320 325 0
512 -324 -325 0
512 309 -312 327 0
512 -326 -327 0
512 -264 -265 329 0
512 -328 -329 0
512 -314 315 330 0
512 -328 -330 0
512 -326 328 0
512 -324 326 0
512 -316 324 0
512 131 132 316 0
512 133 305 332 0
512 -331 -332 0
512 317 324 333 0
512 -331 -333 0
512 130 -131 331 0
512 -329 -330 336 0
512 -335 -336 0
512 -321 -322 338 0
512 -337 -338 0
512 -327 328 339 0
512 -337 -339 0
512 -335 337 0
512 132 -340 0
512 316 -340 0
512 334 335 340 0
512 129 -130 -334 0
512 -332 -333 342 0
512 -341 -342 0
512 -336 337 344 0
512 -131 -345 0
512 331 -345 0
512 343 -344 345 0
512 -341 -343 0
512 -112 -117 346 0
512 -123 126 347 0
512 -104 -348 0
512 111 -348 0
512 124 -349 0
512 125 -349 0
512 -130 -350 0
512 -334 -350 0
512 -344 -351 0
512 345 -351 0
512 102 -103 122 -129 341 -346 -347 348 349 350 351 0
512 -346 -354 0
512 -347 -354 0
512 -342 -343 353 354 0
512 -352 -353 0
512 -103 -356 0
512 122 -356 0
512 -129 -357 0
512 341 -357 0
512 -127 -128 355 356 357 0
512 -352 -355 0
512 -102 352 101 0
512 267 -363 0
512 290 -363 0
512 -22 -33 140 0
512 -41 -49 141 0
512 139 -140 -141 0
512 -138 -139 0
512 -57 -65 143 0
512 -20 -32 151 0
512 -40 -48 152 0
512 150 -151 -152 0
512 -149 -150 0
512 -56 -64 154 0
512 -18 -31 160 0
512 -39 -47 161 0
512 159 -160 -161 0
512 -158 -159 0
512 -16 -30 168 0
512 -167 -168 0
512 -38 -46 169 0
512 -167 -169 0
512 -166 167 0
512 -16 -171 0
512 -30 -171 0
512 -38 -172 0
512 -46 -172 0
512 170 171 172 0
512 -166 -170 0
512 -14 -176 0
512 -29 -176 0
512 -175 176 0
512 -12 -178 0
512 -28 -178 0
512 -177 178 0
512 -37 -177 0
512 -175 177 0
512 -14 -29 181 0
512 -180 -181 0
512 -37 178 182 0
512 -180 -182 0
512 176 177 183 0
512 179 180 -183 0
512 174 175 -179 0
512 -173 -174 0
512 -168 -169 184 0
512 -173 -184 0
512 165 166 173 0
512 175 -186 0
512 -179 -186 0
512 167 -170 187 0
512 185 186 -187 0
512 164 -165 -185 0
512 -55 163 -164 0
512 171 -190 0
512 172 -190 0
512 -189 190 0
512 186 -191 0
512 -187 -191 0
512 -189 191 0
512 166 -193 0
512 173 -193 0
512 190 191 194 0
512 192 193 -194 0
512 188 189 -192 0
512 162 -163 -188 0
512 -158 -162 0
512 -160 -197 0
512 -161 -197 0
512 -196 197 0
512 -18 -199 0
512 -31 -199 0
512 -39 -200 0
512 -47 -200 0
512 198 199 200 0
512 -196 -198 0
512 -163 -202 0
512 -188 -202 0
512 -201 202 0
512 -164 -204 0
512 -55 -204 0
512 189 -205 0
512 -192 -205 0
512 203 204 205 0
512 -201 -203 0
512 195 196 201 0
512 157 158 -195 0
512 197 -198 207 0
512 202 -203 208 0
512 206 -207 -208 0
512 156 -157 -206 0
512 158 -210 0
512 -195 -210 0
512 -207 -212 0
512 -208 -212 0
512 199 -214 0
512 200 -214 0
512 204 -215 0
512 205 -215 0
512 213 214 215 0
512 211 212 -213 0
512 209 210 -211 0
512 155 -156 -209 0
512 153 -154 -155 0
512 -149 -153 0
512 -151 -218 0
512 -152 -218 0
512 -217 218 0
512 -20 -220 0
512 -32 -220 0
512 -40 -221 0
512 -48 -221 0
512 219 220 221 0
512 -217 -219 0
512 -154 -223 0
512 -155 -223 0
512 -222 223 0
512 -56 -225 0
512 -64 -225 0
512 -156 -226 0
512 -209 -226 0
512 224 225 226 0
512 -222 -224 0
512 216 217 222 0
512 148 149 -216 0
512 -147 -148 0
512 218 -219 228 0
512 223 -224 229 0
512 227 -228 -229 0
512 -147 -227 0
512 149 -232 0
512 -216 -232 0
512 -231 232 0
512 -228 -234 0
512 -229 -234 0
512 220 -236 0
512 221 -236 0
512 225 -237 0
512 226 -237 0
512 235 236 237 0
512 233 234 -235 0
512 -231 -233 0
512 214 -240 0
512 215 -240 0
512 196 -242 0
512 201 -242 0
512 212 -243 0
512 -213 -243 0
512 241 242 243 0
512 239 240 -241 0
512 -238 -239 0
512 -150 -153 244 0
512 -238 -244 0
512 230 231 238 0
512 146 147 -230 0
512 240 -246 0
512 -241 -246 0
512 -148 -227 247 0
512 245 246 -247 0
512 145 -146 -245 0
512 -73 144 -145 0
512 142 -143 -144 0
512 -138 -142 0
512 -137 138 0
512 -140 -250 0
512 -141 -250 0
512 -249 250 0
512 -22 -252 0
512 -33 -252 0
512 -41 -253 0
512 -49 -253 0
512 251 252 253 0
512 -249 -251 0
512 -143 -255 0
512 -144 -255 0
512 -254 255 0
512 -57 -257 0
512 -65 -257 0
512 -73 -258 0
512 -145 -258 0
512 256 257 258 0
512 -254 -256 0
512 248 249 254 0
512 -137 -248 0
512 -136 137 0
512 250 -251 261 0
512 -260 -261 0
512 255 -256 262 0
512 -260 -262 0
512 252 -264 0
512 253 -264 0
512 257 -265 0
512 258 -265 0
512 263 264 265 0
512 259 260 -263 0
512 -136 -259 0
512 147 -270 0
512 -230 -270 0
512 232 -233 272 0
512 217 -275 0
512 222 -275 0
512 234 -276 0
512 -235 -276 0
512 274 275 276 0
512 246 -277 0
512 -247 -277 0
512 273 -274 277 0
512 271 -272 -273 0
512 269 270 -271 0
512 275 -280 0
512 276 -280 0
512 231 -281 0
512 238 -281 0
512 279 280 281 0
512 -272 -282 0
512 -273 -282 0
512 278 -279 282 0
512 268 -269 -278 0
512 236 -285 0
512 237 -285 0
512 -284 285 0
512 -274 -286 0
512 277 -286 0
512 -284 286 0
512 280 -288 0
512 281 -288 0
512 285 286 289 0
512 287 288 -289 0
512 283 284 -287 0
512 267 -268 -283 0
512 -266 -267 0
512 -139 -142 290 0
512 -266 -290 0
512 135 136 266 0
512 138 -248 293 0
512 -292 -293 0
512 -261 -262 294 0
512 -292 -294 0
512 -268 -297 0
512 -283 -297 0
512 -269 -299 0
512 -278 -299 0
512 284 -300 0
512 -287 -300 0
512 298 299 300 0
512 296 297 -298 0
512 -295 -296 0
512 297 -301 0
512 -298 -301 0
512 -295 301 0
512 291 292 295 0
512 134 -135 -291 0
512 -293 -294 303 0
512 -296 301 304 0
512 302 -303 -304 0
512 133 -134 -302 0
512 -133 363 362 0
512 -135 -306 0
512 -291 -306 0
512 249 -310 0
512 254 -310 0
512 260 -311 0
512 -263 -311 0
512 309 310 311 0
512 -303 -312 0
512 -304 -312 0
512 308 -309 312 0
512 299 -314 0
512 300 -314 0
512 137 -259 315 0
512 313 314 -315 0
512 307 -308 -313 0
512 305 306 -307 0
512 134 302 -305 364 0
512 136 -319 0
512 266 -319 0
512 310 -321 0
512 311 -321 0
512 292 -322 0
512 295 -322 0
512 320 321 322 0
512 318 319 -320 0
512 -308 -323 0
512 -313 -323 0
512 317 -318 323 0
512 -306 307 -317 365 0
512 319 -325 0
512 -320 -325 0
512 -309 -327 0
512 312 -327 0
512 264 -329 0
512 265 -329 0
512 314 -330 0
512 -315 -330 0
512 328 329 330 0
512 326 327 -328 0
512 324 325 -326 0
512 318 -323 -324 366 0
512 321 -338 0
512 322 -338 0
512 327 -339 0
512 -328 -339 0
512 337 338 339 0
512 -325 326 -337 367 0
512 329 -336 0
512 330 -336 0
512 336 -338 -339 368 0
512 239 -372 0
512 244 -372 0
512 -145 371 372 0
512 146 245 -269 373 0
512 -270 271 -278 374 0
512 279 -282 -287 375 0
512 284 -288 289 376 0
512 159 -380 0
512 162 -380 0
512 -156 380 379 0
512 157 206 -209 381 0
512 -210 211 -241 382 0
512 240 -242 -243 383 0
512 174 -387 0
512 184 -387 0
512 -164 386 387 0
512 165 185 -192 388 0
512 189 -193 194 389 0
512 181 -392 0
512 182 -392 0
512 -179 392 391 0
512 175 -180 183 393 0
512 12 -395 0
512 28 -395 0
512 178 395 394 0
512 -24 -34 106 0
512 -42 -50 107 0
512 105 -106 -107 0
512 -104 -105 0
512 -58 -66 109 0
512 -74 -82 110 0
512 108 -109 -110 0
512 -104 -108 0
512 -103 104 0
512 -106 -113 0
512 -107 -113 0
512 -112 113 0
512 -24 -115 0
512 -34 -115 0
512 -42 -116 0
512 -50 -116 0
512 114 115 116 0
512 -112 -114 0
512 -109 -118 0
512 -110 -118 0
512 -117 118 0
512 -58 -120 0
512 -66 -120 0
512 -74 -121 0
512 -82 -121 0
512 119 120 121 0
512 -117 -119 0
512 111 112 117 0
512 -103 -111 0
512 -102 103 0
512 113 -114 124 0
512 -123 -124 0
512 118 -119 125 0
512 -123 -125 0
512 115 -127 0
512 116 -127 0
512 120 -128 0
512 121 -128 0
512 126 127 128 0
512 122 123 -126 0
512 -102 -122 0
512 132 -133 -305 0
512 -131 -132 0
512 316 -317 -324 0
512 -131 -316 0
512 -130 131 0
512 -133 -332 0
512 -305 -332 0
512 -317 -333 0
512 -324 -333 0
512 331 332 333 0
512 -130 -331 0
512 -129 130 0
512 335 336 -337 0
512 -334 -335 0
512 -132 -316 340 0
512 -334 -340 0
512 -129 334 0
512 -102 129 0
512 332 -342 0
512 333 -342 0
512 336 -344 0
512 -337 -344 0
512 -343 344 0
512 131 -331 345 0
512 -343 -345 0
512 341 342 343 0
512 -102 -341 0
512 112 -346 0
512 117 -346 0
512 -102 346 0
512 123 -347 0
512 -126 -347 0
512 -102 347 0
512 104 -111 348 0
512 -102 -348 0
512 -124 -125 349 0
512 -102 -349 0
512 130 334 350 0
512 -102 -350 0
512 344 -345 351 0
512 -102 -351 0
512 346 347 354 0
512 -353 -354 0
512 342 -353 0
512 343 -353 0
512 127 -355 0
512 128 -355 0
512 103 -122 356 0
512 -355 -356 0
512 129 -341 357 0
512 -355 -357 0
512 352 353 355 0
512 102 -352 359 0
512 -267 -290 363 0
512 -239 -244 372 0
512 -371 -372 0
512 145 -371 0
512 -146 -373 0
512 -245 -373 0
512 269 -373 0
512 270 -374 0
512 -271 -374 0
512 278 -374 0
512 -279 -375 0
512 282 -375 0
512 287 -375 0
512 -284 -376 0
512 288 -376 0
512 -289 -376 0
512 371 373 370 374 375 376 0
512 -174 -184 387 0
512 -386 -387 0
512 164 -386 0
512 -165 -388 0
512 -185 -388 0
512 192 -388 0
512 -189 -389 0
512 193 -389 0
512 -194 -389 0
512 386 388 385 389 0
512 -159 -162 380 0
